
Gurobi 12.0.3 (linux64) logging started Thu Mar 26 23:09:39 2026

Set parameter LogFile to value "/home/solar-wind/WT_Solar_results_bigM100000_thread4/case24_ieee_rts_theta0.12_epsilon0.08_gurobi_seed10000_num_gen38_N_WDR150_load_scaling_factor1_FICA_T24_num_Solar5_num_WT10.txt"
Gurobi Optimizer version 12.0.3 build v12.0.3rc0 (linux64 - "Ubuntu 22.04.5 LTS")

CPU model: Intel(R) Xeon(R) Platinum 8378A CPU @ 3.00GHz, instruction set [SSE2|AVX|AVX2|AVX512]
Thread count: 32 physical cores, 64 logical processors, using up to 4 threads

Non-default parameters:
TimeLimit  14400
MIPGap  0.001
Seed  10000
Threads  4

Academic license 2721591 - for non-commercial use only - registered to fa___@mails.neu.edu.cn
Optimize a model with 699780 rows, 1975 columns and 40555704 nonzeros
Model fingerprint: 0x77d969b4
Model has 912 quadratic objective terms
Coefficient statistics:
  Matrix range     [2e-06, 6e+01]
  Objective range  [2e+01, 6e+01]
  QObjective range [4e-03, 2e-02]
  Bounds range     [0e+00, 0e+00]
  RHS range        [3e-02, 1e+03]
Presolve removed 362037 rows and 0 columns
Presolve time: 4.52s
Presolved: 337743 rows, 2849 columns, 4014404 nonzeros
Presolved model has 912 quadratic objective terms
Elapsed ordering time = 10s
Elapsed ordering time = 33s
Ordering time: 84.63s
Elapsed ordering time = 85s
Elapsed ordering time = 90s
Elapsed ordering time = 98s
Elapsed ordering time = 101s
Elapsed ordering time = 105s
Elapsed ordering time = 113s
Elapsed ordering time = 116s
Elapsed ordering time = 120s
Elapsed ordering time = 128s
Elapsed ordering time = 130s
Elapsed ordering time = 135s
Elapsed ordering time = 142s
Elapsed ordering time = 145s
Elapsed ordering time = 150s
Elapsed ordering time = 157s
Elapsed ordering time = 160s
Elapsed ordering time = 165s
Ordering time: 170.19s

Barrier statistics:
 Dense cols : 983
 AA' NZ     : 3.905e+08
 Factor NZ  : 1.033e+09 (roughly 8.0 GB of memory)
 Factor Ops : 8.731e+12 (roughly 50 seconds per iteration)
 Threads    : 4

                  Objective                Residual
Iter       Primal          Dual         Primal    Dual     Compl     Time
   0   5.84622862e+08 -3.10246655e+08  3.70e+04 9.97e+02  9.96e+05   353s
   1   4.91140607e+08 -2.34906790e+08  3.30e+04 8.89e+02  8.89e+05   353s
   2   4.82363832e+08 -2.27921299e+08  3.26e+04 8.78e+02  8.79e+05   353s
   3   4.81620286e+08 -3.90691806e+08  3.25e+04 8.75e+02  8.77e+05   354s
   4   3.32694849e+08 -6.37693588e+08  2.53e+04 6.71e+02  7.46e+05   354s
   5   2.93029183e+08 -6.67184584e+08  2.32e+04 6.11e+02  6.80e+05   355s
   6   2.50002163e+08 -7.07667159e+08  2.05e+04 5.41e+02  6.03e+05   355s
   7   2.12907559e+08 -7.50809932e+08  1.83e+04 4.77e+02  5.33e+05   355s
   8   1.77234542e+08 -7.94718994e+08  1.58e+04 4.13e+02  4.63e+05   355s
   9   1.49439058e+08 -8.33137027e+08  1.38e+04 3.59e+02  4.04e+05   356s
  10   1.26628028e+08 -8.70524622e+08  1.22e+04 3.14e+02  3.54e+05   356s
  11   9.71881686e+07 -9.15405003e+08  9.88e+03 2.50e+02  2.85e+05   356s
  12   8.08815949e+07 -9.39185543e+08  8.48e+03 2.13e+02  2.44e+05   356s
  13   6.42615985e+07 -9.58763893e+08  6.98e+03 1.74e+02  2.01e+05   356s
  14   4.86684660e+07 -9.82346545e+08  5.44e+03 1.36e+02  1.59e+05   357s
  15   3.40058215e+07 -1.00078902e+09  3.93e+03 9.82e+01  1.16e+05   357s
  16   2.64458777e+07 -1.01010308e+09  3.10e+03 7.76e+01  9.27e+04   357s
  17   6.34712036e+06 -1.00876919e+09  3.31e+03 1.88e+01  3.19e+04   357s
  18   4.90559173e+06 -9.62140766e+08  2.63e+03 1.41e+01  2.43e+04   357s
  19   3.49894179e+06 -8.86553771e+08  1.78e+03 9.51e+00  1.67e+04   357s
  20   2.75252132e+06 -8.22295577e+08  1.23e+03 7.14e+00  1.27e+04   358s
  21   2.05042583e+06 -7.41623344e+08  7.64e+02 4.84e+00  8.84e+03   358s
  22   1.42569040e+06 -7.69250992e+08  3.47e+02 2.79e+00  6.39e+03   358s
  23   1.07315203e+06 -6.94303754e+08  1.69e+02 1.48e+00  4.09e+03   358s
  24   9.43642899e+05 -5.72331543e+08  1.11e+02 9.80e-01  2.83e+03   358s
  25   8.55547676e+05 -4.80602924e+08  7.19e+01 6.38e-01  2.06e+03   359s
  26   8.13849202e+05 -4.10643079e+08  5.28e+01 4.65e-01  1.62e+03   359s
  27   7.89723372e+05 -3.51204005e+08  4.01e+01 3.53e-01  1.30e+03   360s
  28   7.69769716e+05 -2.87306529e+08  2.83e+01 2.51e-01  1.01e+03   361s
  29   7.62822948e+05 -2.60497567e+08  2.38e+01 2.10e-01  8.90e+02   361s
  30   7.59536545e+05 -2.45190167e+08  2.13e+01 1.88e-01  8.26e+02   362s
  31   7.54882824e+05 -2.20410623e+08  1.74e+01 1.54e-01  7.27e+02   363s
  32   7.50633495e+05 -1.94043667e+08  1.35e+01 1.20e-01  6.27e+02   365s
  33   7.47609180e+05 -1.43941062e+08  9.64e+00 8.54e-02  4.56e+02   366s
  34   7.46244662e+05 -1.36455954e+08  7.70e+00 6.84e-02  4.30e+02   369s
  35   7.43748708e+05 -1.08360444e+08  5.48e+00 4.86e-02  3.41e+02   392s
  36   7.39171864e+05 -5.42618031e+07  1.52e+00 1.35e-02  1.64e+02   415s
  37   7.33098138e+05 -6.24644118e+05  1.84e-02 1.64e+00  3.98e+00   440s
  38   6.50786511e+05  8.85586906e+04  2.46e-03 1.86e-01  1.65e+00   465s
  39   6.35187110e+05  4.00491020e+05  1.48e-04 5.26e-04  6.87e-01   512s
  40   6.27254177e+05  5.73454624e+05  1.27e-05 4.54e-05  1.58e-01   554s
  41   6.25710237e+05  5.94213984e+05  2.16e-06 7.68e-06  9.22e-02   597s
  42   6.24539697e+05  6.11624978e+05  4.46e-08 1.59e-07  3.78e-02   640s
  43   6.23945683e+05  6.20546326e+05  2.42e-09 8.70e-09  9.96e-03   683s
  44   6.23791567e+05  6.22757788e+05  5.66e-10 9.15e-10  3.03e-03   727s
  45   6.23746459e+05  6.23412659e+05  8.68e-10 2.23e-10  9.78e-04   769s
  46   6.23730854e+05  6.23643633e+05  3.56e-09 6.37e-10  2.55e-04   807s
  47   6.23725485e+05  6.23724339e+05  1.07e-08 2.69e-10  3.36e-06   847s
  48   6.23725410e+05  6.23725409e+05  5.77e-10 2.17e-11  3.72e-09   937s

Barrier solved model in 48 iterations and 937.25 seconds (928.95 work units)
Optimal objective 6.23725410e+05

